; benchmark generated from python API
(set-info :status unknown)
(declare-datatypes ((RealState 0)) (((RMk1 (rval1 Real)) (RMk2 (rval2 Real)))))
 (assert
 (forall ((|v11:0| Real) )(forall ((|v10:1| Real) )(forall ((|v9:2| Real) )(forall ((|v8:3| Real) )(exists ((|v7:4_st| RealState) (val!4484 Real) )(exists ((|v6:5_st| RealState) (val!4485 Real) )(exists ((|v5:6_st| RealState) (val!4486 Real) )(exists ((|v4:7_st| RealState) (val!4487 Real) )(forall ((|v3:8| Real) )(forall ((|v2:9| Real) )(forall ((|v1:10| Real) )(forall ((|v0:11| Real) )(let ((?x2749 (- 17.0)))
 (let ((?x1597 (* ?x2749 |v2:9|)))
 (let ((?x1969 (* ?x2749 |v1:10|)))
 (let ((?x2551 (+ (+ (+ (* (- 5.0) |v3:8|) (* (- 6.0) (rval2 |v6:5_st|))) ?x1969) ?x1597)))
 (let ((?x2159 (* 8.0 |v11:0|)))
 (let ((?x2014 (+ (+ (+ (* 12.0 |v8:3|) (* 5.0 |v1:10|)) (* 2.0 (rval2 |v4:7_st|))) ?x2159)))
 (let ((?x1642 (- 18.0)))
 (let ((?x2051 (* 4.0 |v2:9|)))
 (let ((?x2946 (- 12.0)))
 (let ((?x1132 (* ?x2946 |v3:8|)))
 (let (($x1666 (<= (+ (+ (+ (* (- 19.0) |v3:8|) (* 10.0 (rval2 |v7:4_st|))) ?x1132) ?x2051) ?x1642)))
 (let ((?x2955 (rval2 |v5:6_st|)))
 (let ((?x599 (* 2.0 ?x2955)))
 (let (($x1883 (<= (+ (+ (+ (rval2 |v6:5_st|) (* 8.0 |v1:10|)) (* (- 5.0) |v10:1|)) ?x599) 15.0)))
 (let ((?x1774 (- 11.0)))
 (let ((?x961 (- 2.0)))
 (let ((?x2202 (* ?x961 |v2:9|)))
 (let ((?x2019 (+ (+ (+ (* (- 8.0) (rval2 |v4:7_st|)) (* ?x1774 |v11:0|)) (* 20.0 |v1:10|)) ?x2202)))
 (let ((?x217 (+ (+ (+ (* 14.0 (rval2 |v7:4_st|)) (* (- 10.0) |v1:10|)) (* 11.0 |v11:0|)) (* 18.0 (rval2 |v6:5_st|)))))
 (let ((?x1682 (* 19.0 |v8:3|)))
 (let (($x1773 (<= (+ (+ (+ (* 3.0 |v2:9|) (* 19.0 |v9:2|)) (* 5.0 |v2:9|)) ?x1682) 12.0)))
 (let (($x2646 (or (or (and $x1773 (<= ?x217 5.0)) (or (<= ?x2019 ?x1774) $x1883)) (and $x1666 (and (<= ?x2014 ?x2749) (<= ?x2551 8.0))))))
 (let ((?x2572 (- 4.0)))
 (let ((?x2339 (* 6.0 |v8:3|)))
 (let ((?x1908 (+ (+ (+ (* 8.0 (rval2 |v6:5_st|)) (* 14.0 |v1:10|)) (* 15.0 |v1:10|)) ?x2339)))
 (let ((?x1884 (* 7.0 |v1:10|)))
 (let (($x2414 (<= (+ (+ (+ (* 11.0 |v2:9|) (* 2.0 |v11:0|)) (* 16.0 ?x2955)) ?x1884) 1.0)))
 (let ((?x3044 (- 20.0)))
 (let ((?x478 (* ?x3044 |v3:8|)))
 (let ((?x2193 (+ (+ (+ (* 0.0 ?x2955) (* 4.0 (rval2 |v4:7_st|))) (* ?x2946 |v1:10|)) ?x478)))
 (let ((?x2387 (- 1.0)))
 (let ((?x1577 (* ?x2387 |v3:8|)))
 (let (($x2560 (<= (+ (+ (+ (* ?x2749 |v9:2|) (* ?x2946 (rval2 |v4:7_st|))) (* ?x3044 |v0:11|)) ?x1577) 7.0)))
 (let ((?x496 (- 19.0)))
 (let ((?x3156 (* ?x496 |v1:10|)))
 (let ((?x2436 (+ (+ (* 16.0 (rval2 |v7:4_st|)) (* 4.0 |v10:1|)) (* (- 10.0) (rval2 |v7:4_st|)))))
 (let ((?x925 (* ?x961 |v1:10|)))
 (let ((?x1633 (- 7.0)))
 (let ((?x1705 (* ?x1633 |v2:9|)))
 (let (($x524 (<= (+ (+ (+ (* 10.0 |v11:0|) (* (- 5.0) (rval2 |v6:5_st|))) ?x1705) ?x925) 15.0)))
 (let ((?x2096 (- 10.0)))
 (let ((?x1483 (* ?x2096 |v3:8|)))
 (let (($x947 (<= (+ (+ (+ (* 17.0 |v10:1|) (* 7.0 |v3:8|)) (* 13.0 |v3:8|)) ?x1483) 5.0)))
 (let ((?x2195 (* ?x2096 |v2:9|)))
 (let ((?x2770 (+ (+ (+ (* 4.0 |v3:8|) (* ?x2749 |v3:8|)) (* 14.0 (rval2 |v7:4_st|))) ?x2195)))
 (let (($x175 (or (and (<= ?x2770 19.0) $x947) (and $x524 (<= (+ ?x2436 ?x3156) 18.0)))))
 (let (($x2411 (and (and $x175 (or (or $x2560 (<= ?x2193 6.0)) (or $x2414 (<= ?x1908 ?x2572)))) $x2646)))
 (let ((?x3170 (* 10.0 |v11:0|)))
 (let ((?x1852 (+ (+ (* (- 16.0) (rval2 |v7:4_st|)) (* (- 5.0) |v1:10|)) (* ?x2946 (rval2 |v7:4_st|)))))
 (let ((?x1477 (- 5.0)))
 (let ((?x582 (* ?x1477 |v2:9|)))
 (let ((?x228 (+ (+ (* (- 14.0) (rval2 |v6:5_st|)) (* (- 6.0) (rval2 |v7:4_st|))) ?x582)))
 (let ((?x760 (rval2 |v7:4_st|)))
 (let ((?x513 (+ (+ (+ (* (- 14.0) (rval2 |v4:7_st|)) (* (- 15.0) |v8:3|)) ?x760) (* ?x496 (rval2 |v4:7_st|)))))
 (let ((?x71 (- 9.0)))
 (let (($x699 (<= (+ (+ (+ ?x1577 (* ?x961 |v9:2|)) (* 2.0 |v0:11|)) (* 18.0 |v9:2|)) ?x71)))
 (let (($x934 (or (or $x699 (<= ?x513 17.0)) (or (<= (+ ?x228 (* ?x2572 |v9:2|)) 13.0) (<= (+ ?x1852 ?x3170) 16.0)))))
 (let ((?x1709 (- 16.0)))
 (let ((?x280 (* 9.0 ?x2955)))
 (let ((?x1564 (* 6.0 |v1:10|)))
 (let ((?x3028 (+ (+ (* 10.0 |v3:8|) (* 8.0 |v3:8|)) ?x1564)))
 (let (($x1122 (<= (+ (+ (+ (* ?x1642 |v9:2|) (* ?x2946 ?x2955)) ?x2955) (* (- 6.0) |v3:8|)) ?x71)))
 (let ((?x1995 (* 16.0 ?x760)))
 (let (($x2623 (<= (+ (+ (+ (* 7.0 |v2:9|) |v11:0|) (* 3.0 (rval2 |v6:5_st|))) ?x1995) 14.0)))
 (let ((?x1415 (- 15.0)))
 (let ((?x1462 (* ?x1774 |v0:11|)))
 (let (($x1421 (<= (+ (+ (+ (* 14.0 |v1:10|) (* 15.0 ?x760)) (* 12.0 ?x2955)) ?x1462) ?x1415)))
 (let (($x605 (<= (+ (+ (+ (* 5.0 |v11:0|) ?x2159) ?x925) (* (- 13.0) |v8:3|)) ?x2096)))
 (let ((?x977 (- 6.0)))
 (let ((?x468 (rval2 |v4:7_st|)))
 (let ((?x2180 (* 2.0 ?x468)))
 (let (($x621 (<= (+ (+ (+ (* 10.0 |v1:10|) (* ?x1415 ?x2955)) (* ?x1774 |v10:1|)) ?x2180) ?x977)))
 (let ((?x2880 (* ?x2096 |v1:10|)))
 (let ((?x701 (+ (+ (+ (* 3.0 |v9:2|) (* ?x2096 ?x2955)) (* 13.0 (rval2 |v6:5_st|))) ?x2880)))
 (let ((?x697 (+ (+ (+ (* ?x1477 |v8:3|) (* (- 8.0) |v10:1|)) (* ?x71 |v2:9|)) (* 15.0 (rval2 |v6:5_st|)))))
 (let ((?x2072 (- 14.0)))
 (let ((?x3042 (* 10.0 ?x760)))
 (let ((?x1418 (+ (+ (+ (* (- 13.0) |v3:8|) (* 3.0 ?x2955)) (* 2.0 (rval2 |v6:5_st|))) ?x3042)))
 (let ((?x1137 (+ (+ (+ (* ?x2946 (rval2 |v6:5_st|)) (* ?x496 |v10:1|)) (* ?x71 ?x468)) (* 9.0 (rval2 |v6:5_st|)))))
 (let ((?x1732 (* 20.0 |v3:8|)))
 (let ((?x1417 (+ (+ (+ (* (- 13.0) |v11:0|) (* 16.0 |v3:8|)) (* 7.0 |v11:0|)) ?x1732)))
 (let ((?x2503 (- 3.0)))
 (let (($x1443 (<= (+ (+ (+ ?x2051 (* ?x1415 |v2:9|)) (* 13.0 ?x760)) (* 2.0 |v1:10|)) ?x2503)))
 (let (($x1717 (or (and (or $x1443 (<= ?x1417 0.0)) (or (<= ?x1137 ?x3044) (<= ?x1418 ?x2072))) (or (and (<= ?x697 11.0) (<= ?x701 19.0)) (and $x621 $x605)))))
 (let (($x743 (and $x1717 (or (or (and $x1421 $x2623) (and $x1122 (<= (+ ?x3028 ?x280) ?x1709))) $x934))))
 (let (($x3063 (<= (+ (+ (+ (* ?x2503 |v2:9|) |v9:2|) (* 2.0 |v11:0|)) (* 18.0 |v8:3|)) 19.0)))
 (let ((?x1365 (+ (+ (+ (* 17.0 |v11:0|) (* ?x1709 |v2:9|)) (* 12.0 |v10:1|)) (* ?x2749 |v11:0|))))
 (let (($x2210 (<= (+ (+ (+ (* ?x2096 |v0:11|) (* 19.0 ?x760)) (* 3.0 |v8:3|)) ?x2339) ?x71)))
 (let ((?x1146 (+ (+ (* 20.0 |v0:11|) (* 0.0 |v1:10|)) (* ?x2503 |v3:8|))))
 (let (($x1041 (and (and (<= (+ ?x1146 (* ?x1774 |v8:3|)) ?x1477) $x2210) (or (<= ?x1365 ?x1774) $x3063))))
 (let ((?x173 (* 4.0 ?x468)))
 (let (($x1847 (<= (+ (+ (+ (* 18.0 |v9:2|) (* ?x2387 |v8:3|)) (* 13.0 |v3:8|)) ?x173) 0.0)))
 (let ((?x2666 (* 0.0 |v2:9|)))
 (let (($x1311 (<= (+ (+ (+ (* 7.0 ?x2955) (* ?x1633 |v0:11|)) (* 12.0 ?x2955)) ?x2666) 0.0)))
 (let ((?x2983 (* 19.0 |v1:10|)))
 (let ((?x1730 (+ (+ (+ (* ?x2749 |v0:11|) (* 2.0 |v3:8|)) (* ?x3044 (rval2 |v6:5_st|))) ?x2983)))
 (let ((?x1464 (+ (+ (+ (* ?x71 ?x2955) (* 9.0 |v3:8|)) (* (- 8.0) |v0:11|)) (* ?x71 (rval2 |v6:5_st|)))))
 (let ((?x2648 (- 8.0)))
 (let ((?x3200 (* ?x977 |v2:9|)))
 (let (($x1967 (and (<= (+ (+ (+ ?x3200 (* 5.0 |v10:1|)) (* ?x961 |v9:2|)) ?x3200) ?x2648) (<= ?x1464 18.0))))
 (let ((?x2463 (* ?x71 |v8:3|)))
 (let (($x740 (<= (+ (+ (+ (* ?x2387 |v2:9|) (* ?x2072 ?x760)) (* 0.0 |v9:2|)) ?x2463) 7.0)))
 (let ((?x118 (* 3.0 |v1:10|)))
 (let (($x2742 (<= (+ (+ (+ (* ?x2648 ?x760) (* 8.0 ?x468)) (* ?x2572 |v10:1|)) ?x118) ?x2503)))
 (let ((?x1199 (+ (+ (+ (* ?x2648 |v3:8|) (* 16.0 |v2:9|)) (* ?x2946 ?x2955)) (* ?x2387 ?x760))))
 (let (($x1806 (or (<= ?x1199 12.0) (<= (+ (+ (+ (* ?x2096 |v8:3|) ?x280) (* ?x1642 |v10:1|)) ?x2463) ?x1415))))
 (let ((?x2653 (+ (+ (+ (* ?x2387 (rval2 |v6:5_st|)) (* (- 13.0) |v11:0|)) (* 11.0 |v9:2|)) (* ?x3044 ?x2955))))
 (let (($x1779 (<= (+ (+ (+ (* 14.0 ?x2955) ?x1132) (* ?x1774 ?x2955)) (* 12.0 |v1:10|)) ?x2503)))
 (let (($x1292 (or (or (or (and $x1779 (<= ?x2653 17.0)) $x1806) (or (or $x2742 $x740) $x1967)) (and (and (<= ?x1730 ?x2749) (and $x1311 $x1847)) $x1041))))
 (let ((?x1116 (+ (+ (+ (* 3.0 |v0:11|) (* 6.0 |v9:2|)) (* 15.0 |v2:9|)) (* ?x3044 ?x468))))
 (let (($x692 (and (<= (+ (+ (+ ?x1564 ?x2880) (* ?x2072 |v11:0|)) (* ?x977 |v8:3|)) ?x2072) (<= ?x1116 1.0))))
 (let ((?x1837 (rval2 |v6:5_st|)))
 (let ((?x1195 (* 11.0 ?x1837)))
 (let (($x506 (<= (+ (+ (+ (* 3.0 |v9:2|) (* ?x1415 ?x2955)) (* ?x1642 |v8:3|)) ?x1195) ?x1774)))
 (let ((?x1126 (+ (+ (+ (* 18.0 |v8:3|) (* ?x71 |v9:2|)) (* ?x961 ?x2955)) (* ?x1633 |v10:1|))))
 (let ((?x2087 (* 13.0 |v0:11|)))
 (let (($x2704 (<= (+ (+ (+ (* 14.0 |v2:9|) (* ?x1709 ?x468)) (* 12.0 |v1:10|)) ?x2087) ?x71)))
 (let (($x1219 (<= (+ (+ (+ (* (- 13.0) |v2:9|) (* ?x2503 |v2:9|)) (* ?x2946 ?x1837)) ?x478) ?x2749)))
 (let ((?x1319 (- 13.0)))
 (let ((?x3195 (+ (+ (+ (* ?x71 |v0:11|) (* ?x3044 |v10:1|)) (* ?x2572 |v3:8|)) (* ?x1774 ?x1837))))
 (let (($x1379 (<= (+ (+ (+ (* 8.0 ?x468) ?x1884) (* 18.0 |v2:9|)) (* 16.0 ?x468)) ?x1642)))
 (let (($x2625 (and (and (or $x1379 (<= ?x3195 ?x1319)) (and $x1219 $x2704)) (or (or (<= ?x1126 ?x1633) $x506) $x692))))
 (let ((?x949 (* 15.0 |v3:8|)))
 (let (($x387 (<= (+ (+ (+ (* ?x2387 |v2:9|) (* 14.0 |v0:11|)) (* ?x1642 |v11:0|)) ?x949) 2.0)))
 (let ((?x116 (+ (+ (+ (* 20.0 ?x468) (* ?x2072 |v9:2|)) (* ?x2648 |v3:8|)) (* 12.0 |v9:2|))))
 (let ((?x2232 (+ (+ (+ (* 7.0 |v9:2|) (* ?x2503 |v9:2|)) (* ?x2096 |v10:1|)) (* 15.0 ?x2955))))
 (let ((?x1441 (* ?x2072 |v11:0|)))
 (let (($x963 (<= (+ (+ (+ (* ?x496 |v11:0|) (* ?x1633 |v8:3|)) (* ?x3044 ?x1837)) ?x1441) 3.0)))
 (let ((?x29 (* 4.0 |v3:8|)))
 (let (($x3110 (<= (+ (+ (+ (* 15.0 |v9:2|) (* 8.0 |v10:1|)) (* 11.0 |v9:2|)) ?x29) ?x2946)))
 (let ((?x985 (+ (+ (+ (* 19.0 |v0:11|) (* ?x2749 ?x1837)) (* 0.0 ?x2955)) (* ?x2387 ?x468))))
 (let (($x549 (<= (+ (+ (+ (* ?x71 |v9:2|) (* 5.0 |v10:1|)) (* ?x2648 |v9:2|)) ?x1682) ?x1319)))
 (let ((?x2561 (* 15.0 |v1:10|)))
 (let (($x1114 (<= (+ (+ (+ (* ?x2387 |v1:10|) (* ?x977 |v3:8|)) (* ?x1319 ?x1837)) ?x2561) ?x1642)))
 (let (($x1729 (and (and (or $x1114 $x549) (or (<= ?x985 ?x1415) $x3110)) (or (and $x963 (<= ?x2232 15.0)) (or (<= ?x116 ?x1477) $x387)))))
 (let (($x3027 (not (= |v4:7_st| (RMk1 val!4487)))))
 (let (($x820 (not (= |v5:6_st| (RMk1 val!4486)))))
 (let (($x1286 (not (= |v6:5_st| (RMk1 val!4485)))))
 (let (($x2483 (not (= |v7:4_st| (RMk1 val!4484)))))
 (and $x2483 $x1286 $x820 $x3027 (or (and (or $x1729 $x2625) $x1292) (and $x743 $x2411)))))))))))))))))))))))))))))))))))))))))))))))))))))))))))))))))))))))))))))))))))))))))))))))))))))))))))))))))))))))))))))))))))))))))))))))
 )
 )
 )
 )
 )
 )
 )
 )
 )
 )
 )
 )
(check-sat)
